1584659
61,12,42,3,21,38,64,67,7,43,46,34,55,26,66,11,6,41,25,30,29,56,32,40,5,60,23,49,19,1,54,13,47,20,65,45,27,17,9,58,15,8,68,35,51,39,62,37,53,44,14,10,18,57,33,52,22,31,28,50,36,59,16,63,2,48,4,24